c Formule 3-SAT générée par réduction
c Variables originales: 18446744073709551523
c Variables totales (avec auxiliaires): 257
p cnf 257 350
-36 39 63 0
-36 39 -63 0
25 56 64 0
25 56 -64 0
-33 5 65 0
-33 5 -65 0
-25 -33 66 0
-25 -33 -66 0
24 3 67 0
24 3 -67 0
40 -19 68 0
40 -19 -68 0
54 -41 69 0
54 -41 -69 0
-42 -60 70 0
-42 -60 -70 0
-39 9 71 0
-39 9 -71 0
-10 16 72 0
-10 16 -72 0
23 -26 73 0
23 -26 -73 0
-57 6 74 0
-57 6 -74 0
-35 33 75 0
-35 33 -75 0
-23 -53 76 0
-23 -53 -76 0
-1 9 77 0
-1 9 -77 0
-31 -19 78 0
-31 -19 -78 0
4 41 79 0
4 41 -79 0
-21 61 80 0
-21 61 -80 0
31 16 81 0
31 16 -81 0
-9 44 82 0
-9 44 -82 0
18 61 83 0
-83 60 84 0
-84 -17 32 0
58 -57 85 0
-85 -41 86 0
-86 60 -39 0
9 -21 87 0
-87 32 88 0
-88 30 28 0
62 -10 89 0
-89 13 90 0
-90 -30 -16 0
61 35 91 0
-91 10 92 0
-92 -26 -46 0
20 -28 93 0
-93 31 94 0
-94 1 17 0
-46 -15 95 0
-95 -50 96 0
-96 -32 -23 0
42 1 97 0
-97 52 98 0
-98 -26 -62 0
24 1 99 0
-99 8 100 0
-100 -48 58 0
24 -47 101 0
-101 2 102 0
-102 -49 -48 0
7 31 103 0
-103 20 104 0
-104 -39 21 0
-7 -41 105 0
-105 -33 106 0
-106 -29 1 0
29 -25 107 0
-107 59 108 0
-108 -44 23 0
19 47 109 0
-109 22 110 0
-110 -54 18 0
-59 34 111 0
-111 -51 112 0
-112 24 -61 0
44 53 113 0
-113 40 114 0
-114 28 58 0
-42 -25 115 0
-115 47 116 0
-116 28 16 0
43 -24 117 0
-117 -60 118 0
-118 -49 -58 0
-37 -59 119 0
-119 51 120 0
-120 -36 41 0
-33 -3 121 0
-121 -25 122 0
-122 42 9 0
-58 -44 123 0
-123 -17 124 0
-124 47 -38 0
-9 17 125 0
-125 53 126 0
-126 38 14 0
58 5 127 0
-127 -44 128 0
-128 -24 -41 0
-19 -3 129 0
-129 -15 130 0
-130 56 -9 0
16 -23 131 0
-131 -48 132 0
-132 -18 -27 0
47 -28 133 0
-133 4 134 0
-134 7 38 0
28 -15 135 0
-135 1 136 0
-136 -18 -3 0
-53 -18 137 0
-137 44 138 0
-138 54 -6 0
45 38 139 0
-139 -28 140 0
-140 -26 6 0
-24 49 141 0
-141 -27 142 0
-142 39 33 0
19 -10 143 0
-143 -17 144 0
-144 55 21 0
36 57 145 0
-145 62 146 0
-146 12 -25 0
60 -40 147 0
-147 17 148 0
-148 -14 -31 0
-40 -19 149 0
-149 41 150 0
-150 44 -18 0
48 -1 151 0
-151 -19 152 0
-152 -31 -43 0
-29 -43 153 0
-153 53 154 0
-154 26 34 0
54 -55 155 0
-155 1 156 0
-156 -10 40 0
28 -21 157 0
-157 61 158 0
-158 32 31 0
-7 -45 159 0
-159 24 160 0
-160 -27 -49 0
46 -12 161 0
-161 25 162 0
-162 -14 -56 0
37 48 163 0
37 48 -163 0
30 -43 164 0
30 -43 -164 0
-5 -35 165 0
-5 -35 -165 0
-43 -41 166 0
-43 -41 -166 0
-47 -40 167 0
-47 -40 -167 0
37 -50 168 0
37 -50 -168 0
60 36 169 0
60 36 -169 0
36 -23 170 0
36 -23 -170 0
22 -27 171 0
22 -27 -171 0
50 -47 172 0
50 -47 -172 0
21 1 173 0
21 1 -173 0
23 59 174 0
23 59 -174 0
4 35 175 0
4 35 -175 0
-61 51 176 0
-61 51 -176 0
61 37 177 0
61 37 -177 0
-62 49 178 0
-62 49 -178 0
-2 -16 179 0
-2 -16 -179 0
-30 -55 180 0
-30 -55 -180 0
-29 3 181 0
-29 3 -181 0
-53 -47 182 0
-53 -47 -182 0
45 -42 183 0
45 -42 -183 0
48 -6 184 0
48 -6 -184 0
-4 -19 185 0
-4 -19 -185 0
-40 13 186 0
-40 13 -186 0
-36 38 187 0
-36 38 -187 0
-19 36 188 0
-19 36 -188 0
-57 30 189 0
-57 30 -189 0
25 22 190 0
25 22 -190 0
-38 -45 191 0
-38 -45 -191 0
-58 37 192 0
-58 37 -192 0
2 -61 193 0
2 -61 -193 0
-53 55 194 0
-53 55 -194 0
-51 29 195 0
-51 29 -195 0
13 48 196 0
13 48 -196 0
7 4 197 0
7 4 -197 0
-62 31 198 0
-62 31 -198 0
-52 7 199 0
-52 7 -199 0
26 -8 200 0
26 -8 -200 0
14 10 201 0
14 10 -201 0
-45 -59 202 0
-45 -59 -202 0
44 4 203 0
44 4 -203 0
-33 -42 204 0
-33 -42 -204 0
-39 24 205 0
-39 24 -205 0
-22 -44 206 0
-22 -44 -206 0
19 -47 207 0
19 -47 -207 0
-3 19 208 0
-3 19 -208 0
3 56 209 0
3 56 -209 0
-21 -38 210 0
-21 -38 -210 0
-39 45 211 0
-39 45 -211 0
22 37 212 0
22 37 -212 0
-54 -43 213 0
-54 -43 -213 0
52 -14 214 0
52 -14 -214 0
38 58 215 0
38 58 -215 0
57 -49 216 0
57 -49 -216 0
-44 -26 217 0
-44 -26 -217 0
-20 -11 218 0
-20 -11 -218 0
-44 -30 219 0
-44 -30 -219 0
-8 -14 220 0
-8 -14 -220 0
56 52 221 0
56 52 -221 0
55 -13 222 0
55 -13 -222 0
34 -44 223 0
34 -44 -223 0
-47 -44 224 0
-47 -44 -224 0
-8 56 225 0
-8 56 -225 0
-55 -61 226 0
-55 -61 -226 0
-8 9 227 0
-8 9 -227 0
-58 -57 228 0
-58 -57 -228 0
-9 -40 229 0
-9 -40 -229 0
38 43 230 0
38 43 -230 0
-59 -21 231 0
-59 -21 -231 0
11 21 232 0
11 21 -232 0
1 36 233 0
1 36 -233 0
-6 -18 234 0
-6 -18 -234 0
37 -32 235 0
37 -32 -235 0
37 22 236 0
37 22 -236 0
50 -42 237 0
50 -42 -237 0
26 -43 238 0
26 -43 -238 0
24 -54 239 0
24 -54 -239 0
-39 -34 240 0
-39 -34 -240 0
61 -44 241 0
61 -44 -241 0
27 -30 242 0
27 -30 -242 0
35 40 243 0
35 40 -243 0
53 28 244 0
53 28 -244 0
-53 15 245 0
-53 15 -245 0
-45 38 246 0
-45 38 -246 0
-28 8 247 0
-28 8 -247 0
5 -39 248 0
5 -39 -248 0
59 16 249 0
59 16 -249 0
7 -33 250 0
7 -33 -250 0
28 -35 251 0
28 -35 -251 0
-39 61 252 0
-39 61 -252 0
-56 -2 253 0
-56 -2 -253 0
-42 -60 254 0
-42 -60 -254 0
-22 -34 255 0
-22 -34 -255 0
-55 28 256 0
-55 28 -256 0
-2 13 257 0
-2 13 -257 0
